Input: forum-13crafb.prec15.dzn
============================================================
Total Runtime: 4.2790 seconds
Input parsing: 0.0021 seconds
Constraint building: 1.0336 seconds
MaxSAT solving: 2.6376 seconds
============================================================

Total variables: 222922
Total clauses: 468398
MaxSAT found with cost: 0
NO SOLUTION FOUND
